\ Model _copy
\ LP format - for model browsing. Use MPS format to capture full model detail.
Minimize
 
Subject To
 R2: node_1_0 - contract_1_0 + 2.530611841988826 contract_0_0
   = 1.266158476508544
 SAT: node_1_0 <= -0.0001
Bounds
 node_1_0 free
 contract_1_0 >= 0.25
 -infinity <= contract_0_0 <= 0.5625
End
